% max load
maxLoad=13;

% number of assigned tasks
nTasks=3;

% assigned tasks
TASK={1, 2, 3};

% processing times
dur=[6, 2, 2];

% precedence relations
nPrecs=2;
suc = [{2}, {3}, {}];

% forward setup times
forwSU=[| 0, 1, 1
		| 1, 0, 1
		| 1, 1, 0 |];

% backward setup times
backSU=[| 0, 1, 1
		| 1, 0, 1
		| 1, 1, 0 |];

% other sets to define
followForw=[{2}, {3}, {}];

followBack=[{1}, {1, 2}, {1, 2, 3}];

precedeForw=[{}, {1}, {2}];

precedeBack=[{1, 2, 3}, {2, 3}, {3}];

